cnf-files/prime-factorization/prime-factorization-470184984576.cnf
p cnf 2098
-3 -650
-4 651
-5 652
-6 653
-7 654
-8 655
-9 656
-10 657
-11 658
-12 659
-13 660
-14 661
-15 662
-16 663
-17 664
-18 665
-19 666
-20 667
-21 668
-22 669
-23 670
-24 671
-25 672
-26 673
-27 674
-28 675
-29 676
-30 677
-31 678
-32 679
-33 680
-34 681
-35 682
-36 683
-37 684
-38 685
-39 686
-40 687
-41 688
-42 -3
-42 -4
3 4 42
-43 -5
-43 -6
5 6 43
-44 -7
-44 -8
7 8 44
-45 -9
-45 -10
9 10 45
-46 -11
-46 -12
11 12 46
-47 -13
-47 -14
13 14 47
-48 -15
-48 -16
15 16 48
-49 -17
-49 -18
17 18 49
-50 -19
-50 -20
19 20 50
-51 -21
-51 -22
21 22 51
-52 -23
-52 -24
23 24 52
-53 -25
-53 -26
25 26 53
-54 -27
-54 -28
27 28 54
-55 -29
-55 -30
29 30 55
-56 -31
-56 -32
31 32 56
-57 -33
-57 -34
33 34 57
-58 -35
-58 -36
35 36 58
-59 -37
-59 -38
37 38 59
-60 -39
-60 -40
39 40 60
-61 42
-61 43
-42 -43 61
-62 44
-62 45
-44 -45 62
-63 46
-63 47
-46 -47 63
-64 48
-64 49
-48 -49 64
-65 50
-65 51
-50 -51 65
-66 52
-66 53
-52 -53 66
-67 54
-67 55
-54 -55 67
-68 56
-68 57
-56 -57 68
-69 58
-69 59
-58 -59 69
-70 -41
-70 60
41 -60 70
-71 61
-71 62
-61 -62 71
-72 63
-72 64
-63 -64 72
-73 65
-73 66
-65 -66 73
-74 67
-74 68
-67 -68 74
-75 69
-75 70
-69 -70 75
-76 71
-76 72
-71 -72 76
-77 73
-77 74
-73 -74 77
-78 76
-78 77
-76 -77 78
-79 75
-79 78
-75 -78 79
-80 1
-80 3
-1 -3 80
-81 2
-81 3
-2 -3 81
-82 1
-82 4
-1 -4 82
-83 2
-83 4
-2 -4 83
-84 81
-84 -82
-81 82 84
-85 -81
-85 82
81 -82 85
-86 -84
-86 -85
84 85 86
-87 81
-87 82
-81 -82 87
-88 83
-88 -87
-83 87 88
-89 -83
-89 87
83 -87 89
-90 -88
-90 -89
88 89 90
-91 83
-91 87
-83 -87 91
-92 1
-92 5
-1 -5 92
-93 2
-93 5
-2 -5 93
-94 -90
-94 -92
90 92 94
-95 90
-95 92
-90 -92 95
-96 -94
-96 -95
94 95 96
-97 -90
-97 92
90 -92 97
-98 91
-98 -93
-91 93 98
-99 -91
-99 93
91 -93 99
-100 -98
-100 -99
98 99 100
-101 91
-101 93
-91 -93 101
-102 -97
-102 -100
97 100 102
-103 97
-103 100
-97 -100 103
-104 -102
-104 -103
102 103 104
-105 97
-105 -100
-97 100 105
-106 -101
-106 -105
101 105 106
-107 1
-107 6
-1 -6 107
-108 2
-108 6
-2 -6 108
-109 -104
-109 -107
104 107 109
-110 104
-110 107
-104 -107 110
-111 -109
-111 -110
109 110 111
-112 -104
-112 107
104 -107 112
-113 -106
-113 -108
106 108 113
-114 106
-114 108
-106 -108 114
-115 -113
-115 -114
113 114 115
-116 -106
-116 108
106 -108 116
-117 -112
-117 -115
112 115 117
-118 112
-118 115
-112 -115 118
-119 -117
-119 -118
117 118 119
-120 112
-120 -115
-112 115 120
-121 -116
-121 -120
116 120 121
-122 1
-122 7
-1 -7 122
-123 2
-123 7
-2 -7 123
-124 -119
-124 -122
119 122 124
-125 119
-125 122
-119 -122 125
-126 -124
-126 -125
124 125 126
-127 -119
-127 122
119 -122 127
-128 -121
-128 -123
121 123 128
-129 121
-129 123
-121 -123 129
-130 -128
-130 -129
128 129 130
-131 -121
-131 123
121 -123 131
-132 -127
-132 -130
127 130 132
-133 127
-133 130
-127 -130 133
-134 -132
-134 -133
132 133 134
-135 127
-135 -130
-127 130 135
-136 -131
-136 -135
131 135 136
-137 1
-137 8
-1 -8 137
-138 2
-138 8
-2 -8 138
-139 -134
-139 -137
134 137 139
-140 134
-140 137
-134 -137 140
-141 -139
-141 -140
139 140 141
-142 -134
-142 137
134 -137 142
-143 -136
-143 -138
136 138 143
-144 136
-144 138
-136 -138 144
-145 -143
-145 -144
143 144 145
-146 -136
-146 138
136 -138 146
-147 -142
-147 -145
142 145 147
-148 142
-148 145
-142 -145 148
-149 -147
-149 -148
147 148 149
-150 142
-150 -145
-142 145 150
-151 -146
-151 -150
146 150 151
-152 1
-152 9
-1 -9 152
-153 2
-153 9
-2 -9 153
-154 -149
-154 -152
149 152 154
-155 149
-155 152
-149 -152 155
-156 -154
-156 -155
154 155 156
-157 -149
-157 152
149 -152 157
-158 -151
-158 -153
151 153 158
-159 151
-159 153
-151 -153 159
-160 -158
-160 -159
158 159 160
-161 -151
-161 153
151 -153 161
-162 -157
-162 -160
157 160 162
-163 157
-163 160
-157 -160 163
-164 -162
-164 -163
162 163 164
-165 157
-165 -160
-157 160 165
-166 -161
-166 -165
161 165 166
-167 1
-167 10
-1 -10 167
-168 2
-168 10
-2 -10 168
-169 -164
-169 -167
164 167 169
-170 164
-170 167
-164 -167 170
-171 -169
-171 -170
169 170 171
-172 -164
-172 167
164 -167 172
-173 -166
-173 -168
166 168 173
-174 166
-174 168
-166 -168 174
-175 -173
-175 -174
173 174 175
-176 -166
-176 168
166 -168 176
-177 -172
-177 -175
172 175 177
-178 172
-178 175
-172 -175 178
-179 -177
-179 -178
177 178 179
-180 172
-180 -175
-172 175 180
-181 -176
-181 -180
176 180 181
-182 1
-182 11
-1 -11 182
-183 2
-183 11
-2 -11 183
-184 -179
-184 -182
179 182 184
-185 179
-185 182
-179 -182 185
-186 -184
-186 -185
184 185 186
-187 -179
-187 182
179 -182 187
-188 -181
-188 -183
181 183 188
-189 181
-189 183
-181 -183 189
-190 -188
-190 -189
188 189 190
-191 -181
-191 183
181 -183 191
-192 -187
-192 -190
187 190 192
-193 187
-193 190
-187 -190 193
-194 -192
-194 -193
192 193 194
-195 187
-195 -190
-187 190 195
-196 -191
-196 -195
191 195 196
-197 1
-197 12
-1 -12 197
-198 2
-198 12
-2 -12 198
-199 -194
-199 -197
194 197 199
-200 194
-200 197
-194 -197 200
-201 -199
-201 -200
199 200 201
-202 -194
-202 197
194 -197 202
-203 -196
-203 -198
196 198 203
-204 196
-204 198
-196 -198 204
-205 -203
-205 -204
203 204 205
-206 -196
-206 198
196 -198 206
-207 -202
-207 -205
202 205 207
-208 202
-208 205
-202 -205 208
-209 -207
-209 -208
207 208 209
-210 202
-210 -205
-202 205 210
-211 -206
-211 -210
206 210 211
-212 1
-212 13
-1 -13 212
-213 2
-213 13
-2 -13 213
-214 -209
-214 -212
209 212 214
-215 209
-215 212
-209 -212 215
-216 -214
-216 -215
214 215 216
-217 -209
-217 212
209 -212 217
-218 -211
-218 -213
211 213 218
-219 211
-219 213
-211 -213 219
-220 -218
-220 -219
218 219 220
-221 -211
-221 213
211 -213 221
-222 -217
-222 -220
217 220 222
-223 217
-223 220
-217 -220 223
-224 -222
-224 -223
222 223 224
-225 217
-225 -220
-217 220 225
-226 -221
-226 -225
221 225 226
-227 1
-227 14
-1 -14 227
-228 2
-228 14
-2 -14 228
-229 -224
-229 -227
224 227 229
-230 224
-230 227
-224 -227 230
-231 -229
-231 -230
229 230 231
-232 -224
-232 227
224 -227 232
-233 -226
-233 -228
226 228 233
-234 226
-234 228
-226 -228 234
-235 -233
-235 -234
233 234 235
-236 -226
-236 228
226 -228 236
-237 -232
-237 -235
232 235 237
-238 232
-238 235
-232 -235 238
-239 -237
-239 -238
237 238 239
-240 232
-240 -235
-232 235 240
-241 -236
-241 -240
236 240 241
-242 1
-242 15
-1 -15 242
-243 2
-243 15
-2 -15 243
-244 -239
-244 -242
239 242 244
-245 239
-245 242
-239 -242 245
-246 -244
-246 -245
244 245 246
-247 -239
-247 242
239 -242 247
-248 -241
-248 -243
241 243 248
-249 241
-249 243
-241 -243 249
-250 -248
-250 -249
248 249 250
-251 -241
-251 243
241 -243 251
-252 -247
-252 -250
247 250 252
-253 247
-253 250
-247 -250 253
-254 -252
-254 -253
252 253 254
-255 247
-255 -250
-247 250 255
-256 -251
-256 -255
251 255 256
-257 1
-257 16
-1 -16 257
-258 2
-258 16
-2 -16 258
-259 -254
-259 -257
254 257 259
-260 254
-260 257
-254 -257 260
-261 -259
-261 -260
259 260 261
-262 -254
-262 257
254 -257 262
-263 -256
-263 -258
256 258 263
-264 256
-264 258
-256 -258 264
-265 -263
-265 -264
263 264 265
-266 -256
-266 258
256 -258 266
-267 -262
-267 -265
262 265 267
-268 262
-268 265
-262 -265 268
-269 -267
-269 -268
267 268 269
-270 262
-270 -265
-262 265 270
-271 -266
-271 -270
266 270 271
-272 1
-272 17
-1 -17 272
-273 2
-273 17
-2 -17 273
-274 -269
-274 -272
269 272 274
-275 269
-275 272
-269 -272 275
-276 -274
-276 -275
274 275 276
-277 -269
-277 272
269 -272 277
-278 -271
-278 -273
271 273 278
-279 271
-279 273
-271 -273 279
-280 -278
-280 -279
278 279 280
-281 -271
-281 273
271 -273 281
-282 -277
-282 -280
277 280 282
-283 277
-283 280
-277 -280 283
-284 -282
-284 -283
282 283 284
-285 277
-285 -280
-277 280 285
-286 -281
-286 -285
281 285 286
-287 1
-287 18
-1 -18 287
-288 2
-288 18
-2 -18 288
-289 -284
-289 -287
284 287 289
-290 284
-290 287
-284 -287 290
-291 -289
-291 -290
289 290 291
-292 -284
-292 287
284 -287 292
-293 -286
-293 -288
286 288 293
-294 286
-294 288
-286 -288 294
-295 -293
-295 -294
293 294 295
-296 -286
-296 288
286 -288 296
-297 -292
-297 -295
292 295 297
-298 292
-298 295
-292 -295 298
-299 -297
-299 -298
297 298 299
-300 292
-300 -295
-292 295 300
-301 -296
-301 -300
296 300 301
-302 1
-302 19
-1 -19 302
-303 2
-303 19
-2 -19 303
-304 -299
-304 -302
299 302 304
-305 299
-305 302
-299 -302 305
-306 -304
-306 -305
304 305 306
-307 -299
-307 302
299 -302 307
-308 -301
-308 -303
301 303 308
-309 301
-309 303
-301 -303 309
-310 -308
-310 -309
308 309 310
-311 -301
-311 303
301 -303 311
-312 -307
-312 -310
307 310 312
-313 307
-313 310
-307 -310 313
-314 -312
-314 -313
312 313 314
-315 307
-315 -310
-307 310 315
-316 -311
-316 -315
311 315 316
-317 1
-317 20
-1 -20 317
-318 2
-318 20
-2 -20 318
-319 -314
-319 -317
314 317 319
-320 314
-320 317
-314 -317 320
-321 -319
-321 -320
319 320 321
-322 -314
-322 317
314 -317 322
-323 -316
-323 -318
316 318 323
-324 316
-324 318
-316 -318 324
-325 -323
-325 -324
323 324 325
-326 -316
-326 318
316 -318 326
-327 -322
-327 -325
322 325 327
-328 322
-328 325
-322 -325 328
-329 -327
-329 -328
327 328 329
-330 322
-330 -325
-322 325 330
-331 -326
-331 -330
326 330 331
-332 1
-332 21
-1 -21 332
-333 2
-333 21
-2 -21 333
-334 -329
-334 -332
329 332 334
-335 329
-335 332
-329 -332 335
-336 -334
-336 -335
334 335 336
-337 -329
-337 332
329 -332 337
-338 -331
-338 -333
331 333 338
-339 331
-339 333
-331 -333 339
-340 -338
-340 -339
338 339 340
-341 -331
-341 333
331 -333 341
-342 -337
-342 -340
337 340 342
-343 337
-343 340
-337 -340 343
-344 -342
-344 -343
342 343 344
-345 337
-345 -340
-337 340 345
-346 -341
-346 -345
341 345 346
-347 1
-347 22
-1 -22 347
-348 2
-348 22
-2 -22 348
-349 -344
-349 -347
344 347 349
-350 344
-350 347
-344 -347 350
-351 -349
-351 -350
349 350 351
-352 -344
-352 347
344 -347 352
-353 -346
-353 -348
346 348 353
-354 346
-354 348
-346 -348 354
-355 -353
-355 -354
353 354 355
-356 -346
-356 348
346 -348 356
-357 -352
-357 -355
352 355 357
-358 352
-358 355
-352 -355 358
-359 -357
-359 -358
357 358 359
-360 352
-360 -355
-352 355 360
-361 -356
-361 -360
356 360 361
-362 1
-362 23
-1 -23 362
-363 2
-363 23
-2 -23 363
-364 -359
-364 -362
359 362 364
-365 359
-365 362
-359 -362 365
-366 -364
-366 -365
364 365 366
-367 -359
-367 362
359 -362 367
-368 -361
-368 -363
361 363 368
-369 361
-369 363
-361 -363 369
-370 -368
-370 -369
368 369 370
-371 -361
-371 363
361 -363 371
-372 -367
-372 -370
367 370 372
-373 367
-373 370
-367 -370 373
-374 -372
-374 -373
372 373 374
-375 367
-375 -370
-367 370 375
-376 -371
-376 -375
371 375 376
-377 1
-377 24
-1 -24 377
-378 2
-378 24
-2 -24 378
-379 -374
-379 -377
374 377 379
-380 374
-380 377
-374 -377 380
-381 -379
-381 -380
379 380 381
-382 -374
-382 377
374 -377 382
-383 -376
-383 -378
376 378 383
-384 376
-384 378
-376 -378 384
-385 -383
-385 -384
383 384 385
-386 -376
-386 378
376 -378 386
-387 -382
-387 -385
382 385 387
-388 382
-388 385
-382 -385 388
-389 -387
-389 -388
387 388 389
-390 382
-390 -385
-382 385 390
-391 -386
-391 -390
386 390 391
-392 1
-392 25
-1 -25 392
-393 2
-393 25
-2 -25 393
-394 -389
-394 -392
389 392 394
-395 389
-395 392
-389 -392 395
-396 -394
-396 -395
394 395 396
-397 -389
-397 392
389 -392 397
-398 -391
-398 -393
391 393 398
-399 391
-399 393
-391 -393 399
-400 -398
-400 -399
398 399 400
-401 -391
-401 393
391 -393 401
-402 -397
-402 -400
397 400 402
-403 397
-403 400
-397 -400 403
-404 -402
-404 -403
402 403 404
-405 397
-405 -400
-397 400 405
-406 -401
-406 -405
401 405 406
-407 1
-407 26
-1 -26 407
-408 2
-408 26
-2 -26 408
-409 -404
-409 -407
404 407 409
-410 404
-410 407
-404 -407 410
-411 -409
-411 -410
409 410 411
-412 -404
-412 407
404 -407 412
-413 -406
-413 -408
406 408 413
-414 406
-414 408
-406 -408 414
-415 -413
-415 -414
413 414 415
-416 -406
-416 408
406 -408 416
-417 -412
-417 -415
412 415 417
-418 412
-418 415
-412 -415 418
-419 -417
-419 -418
417 418 419
-420 412
-420 -415
-412 415 420
-421 -416
-421 -420
416 420 421
-422 1
-422 27
-1 -27 422
-423 2
-423 27
-2 -27 423
-424 -419
-424 -422
419 422 424
-425 419
-425 422
-419 -422 425
-426 -424
-426 -425
424 425 426
-427 -419
-427 422
419 -422 427
-428 -421
-428 -423
421 423 428
-429 421
-429 423
-421 -423 429
-430 -428
-430 -429
428 429 430
-431 -421
-431 423
421 -423 431
-432 -427
-432 -430
427 430 432
-433 427
-433 430
-427 -430 433
-434 -432
-434 -433
432 433 434
-435 427
-435 -430
-427 430 435
-436 -431
-436 -435
431 435 436
-437 1
-437 28
-1 -28 437
-438 2
-438 28
-2 -28 438
-439 -434
-439 -437
434 437 439
-440 434
-440 437
-434 -437 440
-441 -439
-441 -440
439 440 441
-442 -434
-442 437
434 -437 442
-443 -436
-443 -438
436 438 443
-444 436
-444 438
-436 -438 444
-445 -443
-445 -444
443 444 445
-446 -436
-446 438
436 -438 446
-447 -442
-447 -445
442 445 447
-448 442
-448 445
-442 -445 448
-449 -447
-449 -448
447 448 449
-450 442
-450 -445
-442 445 450
-451 -446
-451 -450
446 450 451
-452 1
-452 29
-1 -29 452
-453 2
-453 29
-2 -29 453
-454 -449
-454 -452
449 452 454
-455 449
-455 452
-449 -452 455
-456 -454
-456 -455
454 455 456
-457 -449
-457 452
449 -452 457
-458 -451
-458 -453
451 453 458
-459 451
-459 453
-451 -453 459
-460 -458
-460 -459
458 459 460
-461 -451
-461 453
451 -453 461
-462 -457
-462 -460
457 460 462
-463 457
-463 460
-457 -460 463
-464 -462
-464 -463
462 463 464
-465 457
-465 -460
-457 460 465
-466 -461
-466 -465
461 465 466
-467 1
-467 30
-1 -30 467
-468 2
-468 30
-2 -30 468
-469 -464
-469 -467
464 467 469
-470 464
-470 467
-464 -467 470
-471 -469
-471 -470
469 470 471
-472 -464
-472 467
464 -467 472
-473 -466
-473 -468
466 468 473
-474 466
-474 468
-466 -468 474
-475 -473
-475 -474
473 474 475
-476 -466
-476 468
466 -468 476
-477 -472
-477 -475
472 475 477
-478 472
-478 475
-472 -475 478
-479 -477
-479 -478
477 478 479
-480 472
-480 -475
-472 475 480
-481 -476
-481 -480
476 480 481
-482 1
-482 31
-1 -31 482
-483 2
-483 31
-2 -31 483
-484 -479
-484 -482
479 482 484
-485 479
-485 482
-479 -482 485
-486 -484
-486 -485
484 485 486
-487 -479
-487 482
479 -482 487
-488 -481
-488 -483
481 483 488
-489 481
-489 483
-481 -483 489
-490 -488
-490 -489
488 489 490
-491 -481
-491 483
481 -483 491
-492 -487
-492 -490
487 490 492
-493 487
-493 490
-487 -490 493
-494 -492
-494 -493
492 493 494
-495 487
-495 -490
-487 490 495
-496 -491
-496 -495
491 495 496
-497 1
-497 32
-1 -32 497
-498 2
-498 32
-2 -32 498
-499 -494
-499 -497
494 497 499
-500 494
-500 497
-494 -497 500
-501 -499
-501 -500
499 500 501
-502 -494
-502 497
494 -497 502
-503 -496
-503 -498
496 498 503
-504 496
-504 498
-496 -498 504
-505 -503
-505 -504
503 504 505
-506 -496
-506 498
496 -498 506
-507 -502
-507 -505
502 505 507
-508 502
-508 505
-502 -505 508
-509 -507
-509 -508
507 508 509
-510 502
-510 -505
-502 505 510
-511 -506
-511 -510
506 510 511
-512 1
-512 33
-1 -33 512
-513 2
-513 33
-2 -33 513
-514 -509
-514 -512
509 512 514
-515 509
-515 512
-509 -512 515
-516 -514
-516 -515
514 515 516
-517 -509
-517 512
509 -512 517
-518 -511
-518 -513
511 513 518
-519 511
-519 513
-511 -513 519
-520 -518
-520 -519
518 519 520
-521 -511
-521 513
511 -513 521
-522 -517
-522 -520
517 520 522
-523 517
-523 520
-517 -520 523
-524 -522
-524 -523
522 523 524
-525 517
-525 -520
-517 520 525
-526 -521
-526 -525
521 525 526
-527 1
-527 34
-1 -34 527
-528 2
-528 34
-2 -34 528
-529 -524
-529 -527
524 527 529
-530 524
-530 527
-524 -527 530
-531 -529
-531 -530
529 530 531
-532 -524
-532 527
524 -527 532
-533 -526
-533 -528
526 528 533
-534 526
-534 528
-526 -528 534
-535 -533
-535 -534
533 534 535
-536 -526
-536 528
526 -528 536
-537 -532
-537 -535
532 535 537
-538 532
-538 535
-532 -535 538
-539 -537
-539 -538
537 538 539
-540 532
-540 -535
-532 535 540
-541 -536
-541 -540
536 540 541
-542 1
-542 35
-1 -35 542
-543 2
-543 35
-2 -35 543
-544 -539
-544 -542
539 542 544
-545 539
-545 542
-539 -542 545
-546 -544
-546 -545
544 545 546
-547 -539
-547 542
539 -542 547
-548 -541
-548 -543
541 543 548
-549 541
-549 543
-541 -543 549
-550 -548
-550 -549
548 549 550
-551 -541
-551 543
541 -543 551
-552 -547
-552 -550
547 550 552
-553 547
-553 550
-547 -550 553
-554 -552
-554 -553
552 553 554
-555 547
-555 -550
-547 550 555
-556 -551
-556 -555
551 555 556
-557 1
-557 36
-1 -36 557
-558 2
-558 36
-2 -36 558
-559 -554
-559 -557
554 557 559
-560 554
-560 557
-554 -557 560
-561 -559
-561 -560
559 560 561
-562 -554
-562 557
554 -557 562
-563 -556
-563 -558
556 558 563
-564 556
-564 558
-556 -558 564
-565 -563
-565 -564
563 564 565
-566 -556
-566 558
556 -558 566
-567 -562
-567 -565
562 565 567
-568 562
-568 565
-562 -565 568
-569 -567
-569 -568
567 568 569
-570 562
-570 -565
-562 565 570
-571 -566
-571 -570
566 570 571
-572 1
-572 37
-1 -37 572
-573 2
-573 37
-2 -37 573
-574 -569
-574 -572
569 572 574
-575 569
-575 572
-569 -572 575
-576 -574
-576 -575
574 575 576
-577 -569
-577 572
569 -572 577
-578 -571
-578 -573
571 573 578
-579 571
-579 573
-571 -573 579
-580 -578
-580 -579
578 579 580
-581 -571
-581 573
571 -573 581
-582 -577
-582 -580
577 580 582
-583 577
-583 580
-577 -580 583
-584 -582
-584 -583
582 583 584
-585 577
-585 -580
-577 580 585
-586 -581
-586 -585
581 585 586
-587 1
-587 38
-1 -38 587
-588 2
-588 38
-2 -38 588
-589 -584
-589 -587
584 587 589
-590 584
-590 587
-584 -587 590
-591 -589
-591 -590
589 590 591
-592 -584
-592 587
584 -587 592
-593 -586
-593 -588
586 588 593
-594 586
-594 588
-586 -588 594
-595 -593
-595 -594
593 594 595
-596 -586
-596 588
586 -588 596
-597 -592
-597 -595
592 595 597
-598 592
-598 595
-592 -595 598
-599 -597
-599 -598
597 598 599
-600 592
-600 -595
-592 595 600
-601 -596
-601 -600
596 600 601
-602 1
-602 39
-1 -39 602
-603 2
-603 39
-2 -39 603
-604 -599
-604 -602
599 602 604
-605 599
-605 602
-599 -602 605
-606 -604
-606 -605
604 605 606
-607 -599
-607 602
599 -602 607
-608 -601
-608 -603
601 603 608
-609 601
-609 603
-601 -603 609
-610 -608
-610 -609
608 609 610
-611 -601
-611 603
601 -603 611
-612 -607
-612 -610
607 610 612
-613 607
-613 610
-607 -610 613
-614 -612
-614 -613
612 613 614
-615 607
-615 -610
-607 610 615
-616 -611
-616 -615
611 615 616
-617 1
-617 40
-1 -40 617
-618 2
-618 40
-2 -40 618
-619 -614
-619 -617
614 617 619
-620 614
-620 617
-614 -617 620
-621 -619
-621 -620
619 620 621
-622 -614
-622 617
614 -617 622
-623 -616
-623 -618
616 618 623
-624 616
-624 618
-616 -618 624
-625 -623
-625 -624
623 624 625
-626 -616
-626 618
616 -618 626
-627 -622
-627 -625
622 625 627
-628 622
-628 625
-622 -625 628
-629 -627
-629 -628
627 628 629
-630 622
-630 -625
-622 625 630
-631 -626
-631 -630
626 630 631
-632 1
-632 41
-1 -41 632
-633 2
-633 41
-2 -41 633
-634 -629
-634 -632
629 632 634
-635 629
-635 632
-629 -632 635
-636 -634
-636 -635
634 635 636
-637 -629
-637 632
629 -632 637
-638 -631
-638 -633
631 633 638
-639 631
-639 633
-631 -633 639
-640 -638
-640 -639
638 639 640
-641 -631
-641 633
631 -633 641
-642 -637
-642 -640
637 640 642
-643 637
-643 640
-637 -640 643
-644 -642
-644 -643
642 643 644
-645 637
-645 -640
-637 640 645
-646 -641
-646 -645
641 645 646
-647 644
-647 646
-644 -646 647
-648 -79
-648 647
79 -647 648
-649 80
-649 648
-80 -648 649
-650 648
-650 -649
-648 649 650
-651 -86
-651 648
86 -648 651
-652 -96
-652 648
96 -648 652
-653 -111
-653 648
111 -648 653
-654 -126
-654 648
126 -648 654
-655 -141
-655 648
141 -648 655
-656 -156
-656 648
156 -648 656
-657 -171
-657 648
171 -648 657
-658 -186
-658 648
186 -648 658
-659 -201
-659 648
201 -648 659
-660 -216
-660 648
216 -648 660
-661 -231
-661 648
231 -648 661
-662 -246
-662 648
246 -648 662
-663 -261
-663 648
261 -648 663
-664 -276
-664 648
276 -648 664
-665 -291
-665 648
291 -648 665
-666 -306
-666 648
306 -648 666
-667 -321
-667 648
321 -648 667
-668 -336
-668 648
336 -648 668
-669 -351
-669 648
351 -648 669
-670 -366
-670 648
366 -648 670
-671 -381
-671 648
381 -648 671
-672 -396
-672 648
396 -648 672
-673 -411
-673 648
411 -648 673
-674 -426
-674 648
426 -648 674
-675 -441
-675 648
441 -648 675
-676 -456
-676 648
456 -648 676
-677 -471
-677 648
471 -648 677
-678 -486
-678 648
486 -648 678
-679 -501
-679 648
501 -648 679
-680 -516
-680 648
516 -648 680
-681 -531
-681 648
531 -648 681
-682 -546
-682 648
546 -648 682
-683 -561
-683 648
561 -648 683
-684 -576
-684 648
576 -648 684
-685 -591
-685 648
591 -648 685
-686 -606
-686 648
606 -648 686
-687 -621
-687 648
621 -648 687
-688 -636
-688 648
636 -648 688
-689 -80
-689 86
80 -86 689
-690 96
-690 111
-96 -111 690
-691 126
-691 141
-126 -141 691
-692 156
-692 171
-156 -171 692
-693 186
-693 201
-186 -201 693
-694 216
-694 231
-216 -231 694
-695 246
-695 261
-246 -261 695
-696 276
-696 -291
-276 291 696
-697 -306
-697 321
306 -321 697
-698 -336
-698 351
336 -351 698
-699 -366
-699 -381
366 381 699
-700 396
-700 411
-396 -411 700
-701 -426
-701 441
426 -441 701
-702 456
-702 -471
-456 471 702
-703 -486
-703 -501
486 501 703
-704 -516
-704 531
516 -531 704
-705 -546
-705 561
546 -561 705
-706 -576
-706 -591
576 591 706
-707 606
-707 -621
-606 621 707
-708 689
-708 690
-689 -690 708
-709 691
-709 692
-691 -692 709
-710 693
-710 694
-693 -694 710
-711 695
-711 696
-695 -696 711
-712 697
-712 698
-697 -698 712
-713 699
-713 700
-699 -700 713
-714 701
-714 702
-701 -702 714
-715 703
-715 704
-703 -704 715
-716 705
-716 706
-705 -706 716
-717 -636
-717 707
636 -707 717
-718 708
-718 709
-708 -709 718
-719 710
-719 711
-710 -711 719
-720 712
-720 713
-712 -713 720
-721 714
-721 715
-714 -715 721
-722 716
-722 717
-716 -717 722
-723 718
-723 719
-718 -719 723
-724 720
-724 721
-720 -721 724
-725 723
-725 724
-723 -724 725
-726 722
-726 725
-722 -725 726
-727 647
-727 726
-647 -726 727
727
